
Gurobi 7.5.2 (linux64) logging started Sat Jun 23 18:09:45 2018

Changed value of parameter LogFile to result/ilp/simNo_9-n_100-m_40-s_4-minVAF_0.05-cov_2000-k_2-fn_0.10-fp_0.0001-na_0.15.ILP.gurobiSolverLog
   Prev: gurobi.log  Default: 
Changed value of parameter TimeLimit to 86400.0
   Prev: 1e+100  Min: 0.0  Max: 1e+100  Default: 1e+100
Optimize a model with 1265601 rows, 330440 columns and 3489120 nonzeros
Variable types: 0 continuous, 330440 integer (330440 binary)
Coefficient statistics:
  Matrix range     [3e-03, 3e+00]
  Objective range  [5e-01, 9e+00]
  Bounds range     [1e+00, 1e+00]
  RHS range        [3e-01, 2e+00]
Found heuristic solution: objective -14151.63108
Presolve removed 344403 rows and 215973 columns (presolve time = 7s) ...
Presolve removed 344857 rows and 215973 columns (presolve time = 11s) ...
Presolve removed 344857 rows and 215973 columns (presolve time = 15s) ...
Presolve removed 344857 rows and 215973 columns (presolve time = 20s) ...
Presolve removed 344857 rows and 215973 columns (presolve time = 27s) ...
Presolve removed 344857 rows and 215973 columns (presolve time = 30s) ...
Presolve removed 344857 rows and 215973 columns (presolve time = 35s) ...
Presolve removed 344857 rows and 215973 columns (presolve time = 40s) ...
Presolve removed 344857 rows and 215973 columns (presolve time = 46s) ...
Presolve removed 344857 rows and 215973 columns
Presolve time: 48.43s
Presolved: 920744 rows, 114467 columns, 2553990 nonzeros
Variable types: 0 continuous, 114467 integer (114467 binary)
Presolved: 114467 rows, 1035211 columns, 2668457 nonzeros

Presolve removed 114467 rows and 1035211 columns

Root simplex log...

Iteration    Objective       Primal Inf.    Dual Inf.      Time
       0    1.4254703e+01   0.000000e+00   8.917200e+04     58s
    9128   -1.6458803e+02   0.000000e+00   1.275025e+05     60s
   19076   -2.3032442e+02   0.000000e+00   0.000000e+00     65s
   19076   -2.3032442e+02   0.000000e+00   0.000000e+00     68s

Root relaxation: objective -2.303244e+02, 19076 iterations, 17.09 seconds
Total elapsed time = 70.02s
Total elapsed time = 108.51s
Total elapsed time = 121.39s

    Nodes    |    Current Node    |     Objective Bounds      |     Work
 Expl Unexpl |  Obj  Depth IntInf | Incumbent    BestBd   Gap | It/Node Time

     0     0 -230.32442    0  699 -14151.631 -230.32442  98.4%     -  134s
H    0     0                    -285.1908552 -230.32442  19.2%     -  147s
     0     0 -237.72644    0  642 -285.19086 -237.72644  16.6%     -  167s
     0     0 -244.34601    0  779 -285.19086 -244.34601  14.3%     -  201s
H    0     0                    -282.5025049 -244.34601  13.5%     -  211s
     0     0 -244.34601    0  778 -282.50250 -244.34601  13.5%     -  220s
     0     0 -245.57968    0  763 -282.50250 -245.57968  13.1%     -  236s
     0     0 -246.14906    0  767 -282.50250 -246.14906  12.9%     -  254s
     0     0 -246.17232    0  675 -282.50250 -246.17232  12.9%     -  269s
     0     0 -246.99477    0  677 -282.50250 -246.99477  12.6%     -  285s
     0     0 -246.99477    0  677 -282.50250 -246.99477  12.6%     -  293s
     0     0 -249.11415    0  702 -282.50250 -249.11415  11.8%     -  309s
     0     0 -249.11415    0  709 -282.50250 -249.11415  11.8%     -  323s
     0     0 -251.58149    0  726 -282.50250 -251.58149  10.9%     -  347s
     0     0 -251.58149    0  728 -282.50250 -251.58149  10.9%     -  362s
     0     0 -251.58955    0  807 -282.50250 -251.58955  10.9%     -  379s
     0     0 -251.67639    0  651 -282.50250 -251.67639  10.9%     -  401s
     0     0 -251.67639    0  672 -282.50250 -251.67639  10.9%     -  410s
     0     0 -252.73101    0  789 -282.50250 -252.73101  10.5%     -  477s
     0     0 -252.73101    0  791 -282.50250 -252.73101  10.5%     -  497s
     0     0 -254.13592    0  690 -282.50250 -254.13592  10.0%     -  523s
     0     0 -254.21356    0  706 -282.50250 -254.21356  10.0%     -  543s
     0     0 -254.35797    0  710 -282.50250 -254.35797  10.0%     -  556s
     0     0 -254.36390    0  710 -282.50250 -254.36390  10.0%     -  566s
     0     0 -254.37379    0  710 -282.50250 -254.37379  10.0%     -  578s
     0     0 -254.37379    0  710 -282.50250 -254.37379  10.0%     -  587s
     0     0 -255.61260    0  704 -282.50250 -255.61260  9.52%     -  608s
     0     0 -255.75041    0  690 -282.50250 -255.75041  9.47%     -  626s
     0     0 -255.75041    0  691 -282.50250 -255.75041  9.47%     -  636s
     0     0 -256.63626    0  770 -282.50250 -256.63626  9.16%     -  657s
     0     0 -257.28563    0  827 -282.50250 -257.28563  8.93%     -  682s
     0     0 -257.28563    0  829 -282.50250 -257.28563  8.93%     -  693s
     0     0 -258.31514    0  727 -282.50250 -258.31514  8.56%     -  721s
     0     0 -258.67651    0  773 -282.50250 -258.67651  8.43%     -  745s
     0     0 -258.76426    0  778 -282.50250 -258.76426  8.40%     -  758s
     0     0 -258.90660    0  735 -282.50250 -258.90660  8.35%     -  771s
     0     0 -258.90660    0  737 -282.50250 -258.90660  8.35%     -  779s
     0     0 -260.23760    0  742 -282.50250 -260.23760  7.88%     -  803s
     0     0 -260.25232    0  745 -282.50250 -260.25232  7.88%     -  821s
     0     0 -260.32231    0  742 -282.50250 -260.32231  7.85%     -  832s
     0     0 -260.33882    0  745 -282.50250 -260.33882  7.85%     -  844s
     0     0 -260.33882    0  749 -282.50250 -260.33882  7.85%     -  853s
     0     0 -261.23276    0  840 -282.50250 -261.23276  7.53%     -  873s
     0     0 -261.64486    0  844 -282.50250 -261.64486  7.38%     -  899s
     0     0 -261.69438    0  844 -282.50250 -261.69438  7.37%     -  909s
     0     0 -261.70883    0  844 -282.50250 -261.70883  7.36%     -  920s
     0     0 -262.15867    0  741 -282.50250 -262.15867  7.20%     -  940s
     0     0 -262.15867    0  734 -282.50250 -262.15867  7.20%     -  957s
     0     0 -262.20216    0  741 -282.50250 -262.20216  7.19%     -  975s
     0     0 -262.29034    0  802 -282.50250 -262.29034  7.15%     -  997s
     0     0 -262.29034    0  804 -282.50250 -262.29034  7.15%     - 1005s
     0     0 -263.25884    0  752 -282.50250 -263.25884  6.81%     - 1026s
     0     0 -263.39760    0  624 -282.50250 -263.39760  6.76%     - 1046s
     0     0 -263.65892    0  793 -282.50250 -263.65892  6.67%     - 1059s
     0     0 -263.71139    0  788 -282.50250 -263.71139  6.65%     - 1070s
     0     0 -263.71139    0  791 -282.50250 -263.71139  6.65%     - 1078s
     0     0 -263.86051    0  837 -282.50250 -263.86051  6.60%     - 1096s
     0     0 -263.99778    0  849 -282.50250 -263.99778  6.55%     - 1115s
     0     0 -264.03148    0  846 -282.50250 -264.03148  6.54%     - 1125s
     0     0 -264.03397    0  851 -282.50250 -264.03397  6.54%     - 1134s
     0     0 -264.35108    0  840 -282.50250 -264.35108  6.43%     - 1151s
     0     0 -264.35108    0  844 -282.50250 -264.35108  6.43%     - 1166s
     0     0 -264.37353    0  844 -282.50250 -264.37353  6.42%     - 1182s
     0     0 -264.37511    0  847 -282.50250 -264.37511  6.42%     - 1196s
     0     0 -265.16579    0  811 -282.50250 -265.16579  6.14%     - 1266s
     0     0 -265.32594    0  841 -282.50250 -265.32594  6.08%     - 1287s
     0     0 -265.39644    0  842 -282.50250 -265.39644  6.06%     - 1298s
     0     0 -265.42399    0  846 -282.50250 -265.42399  6.05%     - 1307s
     0     0 -265.42399    0  847 -282.50250 -265.42399  6.05%     - 1315s
     0     0 -266.10534    0  846 -282.50250 -266.10534  5.80%     - 1341s
     0     0 -267.05796    0  853 -282.50250 -267.05796  5.47%     - 1366s
     0     0 -267.18483    0  858 -282.50250 -267.18483  5.42%     - 1377s
     0     0 -267.22276    0  912 -282.50250 -267.22276  5.41%     - 1387s
     0     0 -267.22663    0  858 -282.50250 -267.22663  5.41%     - 1395s
     0     0 -267.22713    0  919 -282.50250 -267.22713  5.41%     - 1404s
     0     0 -267.23140    0  848 -282.50250 -267.23140  5.41%     - 1419s
     0     0 -267.23140    0  852 -282.50250 -267.23140  5.41%     - 1434s
     0     0 -267.27967    0  842 -282.50250 -267.27967  5.39%     - 1454s
     0     0 -267.32883    0  845 -282.50250 -267.32883  5.37%     - 1473s
     0     0 -267.33792    0  839 -282.50250 -267.33792  5.37%     - 1481s
     0     0 -267.35260    0  844 -282.50250 -267.35260  5.36%     - 1489s
     0     0 -267.35606    0  845 -282.50250 -267.35606  5.36%     - 1497s
     0     0 -267.75980    0  837 -282.50250 -267.75980  5.22%     - 1515s
     0     0 -267.81854    0  839 -282.50250 -267.81854  5.20%     - 1531s
     0     0 -267.81854    0  843 -282.50250 -267.81854  5.20%     - 1539s
     0     0 -268.00622    0  746 -282.50250 -268.00622  5.13%     - 1555s
     0     0 -268.19057    0  748 -282.50250 -268.19057  5.07%     - 1572s
     0     0 -268.20078    0  733 -282.50250 -268.20078  5.06%     - 1581s
     0     0 -268.20135    0  796 -282.50250 -268.20135  5.06%     - 1590s
     0     0 -268.39417    0  839 -282.50250 -268.39417  4.99%     - 1604s
     0     0 -268.39417    0  848 -282.50250 -268.39417  4.99%     - 1617s
     0     0 -268.39524    0  848 -282.50250 -268.39524  4.99%     - 1631s
     0     0 -268.48151    0  851 -282.50250 -268.48151  4.96%     - 1645s
     0     0 -268.49014    0  853 -282.50250 -268.49014  4.96%     - 1652s
     0     0 -268.49014    0  854 -282.50250 -268.49014  4.96%     - 1658s
     0     0 -268.63248    0  833 -282.50250 -268.63248  4.91%     - 1711s
     0     0 -268.87531    0  844 -282.50250 -268.87531  4.82%     - 1728s
     0     0 -268.89400    0  850 -282.50250 -268.89400  4.82%     - 1737s
     0     0 -268.90623    0  852 -282.50250 -268.90623  4.81%     - 1745s
     0     0 -268.90623    0  852 -282.50250 -268.90623  4.81%     - 1752s
     0     0 -269.13128    0  840 -282.50250 -269.13128  4.73%     - 1769s
     0     0 -269.34422    0  840 -282.50250 -269.34422  4.66%     - 1784s
     0     0 -269.34422    0  847 -282.50250 -269.34422  4.66%     - 1792s
     0     0 -269.34422    0  847 -282.50250 -269.34422  4.66%     - 1807s
     0     0 -269.34422    0  849 -282.50250 -269.34422  4.66%     - 1820s
     0     0 -269.34422    0  837 -282.50250 -269.34422  4.66%     - 1860s
     0     2 -269.34845    0  835 -282.50250 -269.34845  4.66%     - 1952s
     2     4 -269.88437    2  709 -282.50250 -269.36448  4.65%   837 1962s
     3     5 -270.31845    3  496 -282.50250 -269.36448  4.65%   649 1967s
     4     6 -270.96185    4  718 -282.50250 -269.36448  4.65%   575 1973s
     5     7 -272.04654    5  717 -282.50250 -269.36448  4.65%   756 1997s
     7     9 -272.04655    7  708 -282.50250 -269.36448  4.65%   543 2000s
     8    10 -272.10159    8  669 -282.50250 -269.36448  4.65%   535 2005s
    10    12 -273.10764   10  382 -282.50250 -269.36448  4.65%   459 2010s
    11    11     cutoff   10      -282.50250 -269.36448  4.65%   510 2016s
    13    11     cutoff   11      -282.50250 -269.36448  4.65%   561 2025s
    15    11     cutoff   12      -282.50250 -269.36448  4.65%   533 2031s
    17    13 -275.99524   14  363 -282.50250 -269.36448  4.65%   478 2036s
    18    14 -281.36373   14  167 -282.50250 -269.36448  4.65%   473 2040s
    25    13 -277.57957    1  665 -282.50250 -269.37065  4.65%   680 2100s
    26    12     cutoff    2      -282.50250 -269.37065  4.65%   674 2106s
    28    12 -280.00072    2  735 -282.50250 -269.92218  4.45%   761 2138s
    29    11     cutoff    3      -282.50250 -269.92218  4.45%   739 2140s
    31     9     cutoff    3      -282.50250 -270.36523  4.30%   738 2160s
    32     8     cutoff    4      -282.50250 -270.99709  4.07%   799 2187s
    33     7     cutoff    5      -282.50250 -272.04746  3.70%   821 2203s
    34     6     cutoff    6      -282.50250 -272.04747  3.70%   856 2218s
    35     5     cutoff    7      -282.50250 -272.04753  3.70%   854 2229s
    36     4     cutoff    8      -282.50250 -272.27831  3.62%   888 2253s
    37     3     cutoff    9      -282.50250 -273.84784  3.06%   906 2261s
    40     2 -276.93518   15  360 -282.50250 -276.93518  1.97%   848 2266s
    43     1     cutoff   17      -282.50250 -277.29753  1.84%   801 2270s
    45     3 -280.41476   18  340 -282.50250 -278.30310  1.49%   776 2276s
    49     5 -280.41476   18  337 -282.50250 -280.41476  0.74%   718 2280s
    57     5 -281.55353   22  339 -282.50250 -281.55353  0.34%   621 2286s

Cutting planes:
  Gomory: 2
  Zero half: 160

Explored 63 nodes (105042 simplex iterations) in 2289.52 seconds
Thread count was 1 (of 80 available processors)

Solution count 3: -282.503 -285.191 -14151.6 

Optimal solution found (tolerance 1.00e-04)
Best objective -2.825025048595e+02, best bound -2.825025048595e+02, gap 0.0000%
